NAME : portcgen-28-3
COMMENT : portcgen N=28, seed=3
TYPE : TSP
DIMENSION : 28
EDGE_WEIGHT_TYPE : EUC_2D
NODE_COORD_SECTION
1 243677 112225
2 -83989 -200834
3 -124830 284351
4 -100244 309857
5 -197134 18073
6 97403 -232929
7 -24550 -255099
8 172663 197092
9 -161106 -257036
10 68062 -173694
11 -162221 -27326
12 151939 280435
13 62721 -23204
14 -267106 -296232
15 -51008 110787
16 103114 66417
17 481489 330979
18 20869 57338
19 114384 100699
20 -334022 -41257
21 -165184 230479
22 -81196 103481
23 -9647 -79031
24 8469 77890
25 46076 332399
26 220774 -205148
27 201527 -90624
28 158541 -107686
